c --- [ banner ] -------------------------------------------------------------
c 
c CaDiCaL Radically Simplified CDCL SAT Solver
c Copyright (c) 2016-2021 A. Biere, M. Fleury, N. Froleyks
c 
c Version 1.5.2 a5f15211db36c3956764e18194dd5bd63bf3b5e6
c g++ (GCC) 9.3.0 -Wall -Wextra -O3 -DNDEBUG
c Fri Oct 21 01:27:37 EDT 2022 Linux gra-login3 3.10.0-1160.66.1.el7.x86_64 x86_64
c 
c --- [ limit ] --------------------------------------------------------------
c 
c setting conflict limit to 200000 conflicts (due to '200000')
c 
c --- [ parsing input ] ------------------------------------------------------
c 
c reading DIMACS file from '45.cubes36.adj'
c opening file to read '45.cubes36.adj'
c found 'p cnf 6160 1595482' header
c parsed 1595482 clauses in 16.55 seconds process time
c closing file '45.cubes36.adj'
c after reading 1457566823 bytes 1390.0 MB
c 
c --- [ options ] ------------------------------------------------------------
c 
c all options are set to their default value
c 
c --- [ solving ] ------------------------------------------------------------
c 
c time measured in process time since initialization
c 
c  seconds    reductions  redundant   irredundant
c          MB     restarts       trail       variables
c            level   conflicts       glue         remaining
c 
c * 16.56 1392  0 0   0    0    0  0% 0 1595422 2245 36%
c { 17.30 1427  0 0   0    0    0  0% 0 1595422 2245 36%
c i 19.05 1484 1233 0   0   35   29 46% 16 1595422 2172 35%
c i 19.88 1498 875 0   3   59   51 42% 21 1595422 2136 35%
c i 19.90 1499 860 0   4   60   51 42% 21 1595422 2135 35%
c i 19.97 1499 783 0   5   66   56 41% 22 1595422 2134 35%
c i 20.01 1500 760 0   5   68   57 40% 22 1595422 2133 35%
c i 20.01 1500 748 0   6   69   57 40% 21 1595422 2121 34%
c i 20.40 1505 645 0   9   81   65 39% 23 1595422 2120 34%
c i 20.73 1511 583 0  12   91   74 38% 23 1595422 2119 34%
c i 20.79 1513 568 0  13   94   76 37% 24 1595422 2118 34%
c i 21.25 1514 492 0  18  112   92 36% 25 1595422 2117 34%
c i 21.30 1515 489 0  19  113   92 36% 25 1595422 2116 34%
c i 21.57 1517 431 0  25  134  111 35% 30 1595422 2114 34%
c i 21.75 1518 417 0  27  140  116 34% 32 1595422 2113 34%
c i 21.75 1518 412 0  27  142  117 34% 31 1595422 2112 34%
c i 22.14 1520 366 0  34  165  137 34% 33 1595422 2111 34%
c i 22.15 1520 362 0  34  167  138 33% 33 1595422 2110 34%
c i 22.91 1524 287 0  45  225  187 32% 35 1595422 2090 34%
c i 22.99 1524 276 0  45  236  197 32% 34 1595422 2089 34%
c 
c  seconds     reductions  redundant    irredundant
c          MB      restarts       trail        variables
c             level   conflicts       glue          remaining
c 
c i 23.25 1524 228 0  45  298  248 32% 33 1595422 2088 34%
c - 26.68 1385 225 1  45  303  251 32% 34 151099 2088 34%
c i 26.91 1347 207 1  45  338  283 31% 34 151099 2087 34%
c i 27.00 1347 193 1  46  372  309 31% 34 151099 2086 34%
c i 27.08 1347 177 1  46  417  347 31% 34 151099 2085 34%
c i 27.08 1347 177 1  46  418  347 31% 34 151099 2084 34%
c i 27.08 1347 176 1  46  419  347 31% 34 151099 2083 34%
c i 27.10 1347 171 1  46  443  368 31% 34 151099 2082 34%
c i 27.23 1347 153 1  49  518  434 31% 34 151099 2081 34%
c i 27.27 1347 151 1  50  537  452 31% 34 151099 2080 34%
c i 27.28 1347 150 1  50  539  453 31% 34 151099 2079 34%
c i 27.39 1347 148 1  55  569  480 31% 36 151099 2078 34%
c i 27.46 1347 146 1  62  592  498 31% 36 151099 2077 34%
c i 27.47 1347 145 1  62  595  500 31% 36 151099 2076 34%
c i 27.66 1347 140 1  69  637  541 31% 36 151099 2075 34%
c i 27.71 1347 139 1  72  648  550 31% 36 151099 2074 34%
c i 27.87 1347 136 1  79  682  583 31% 36 151099 2073 34%
c i 27.88 1347 136 1  79  685  585 31% 36 151099 2072 34%
c i 28.04 1347 134 1  84  711  607 31% 37 151099 2071 34%
c i 28.08 1347 133 1  84  716  611 31% 37 151099 2070 34%
c 
c  seconds     reductions  redundant   irredundant
c          MB      restarts       trail       variables
c             level   conflicts       glue         remaining
c 
c i 28.10 1347 132 1  84  726  619 31% 37 151099 2069 34%
c i 28.10 1347 132 1  84  729  621 31% 36 151099 2068 34%
c i 28.19 1347 130 1  86  746  637 31% 37 151099 2067 34%
c i 28.33 1347 125 1  91  803  676 31% 37 151099 2066 34%
c i 28.36 1347 123 1  91  822  692 31% 37 151099 2065 34%
c i 28.36 1347 123 1  91  823  692 31% 37 151099 2064 34%
c i 28.37 1347 122 1  91  825  693 31% 37 151099 2063 33%
c i 28.40 1347 120 1  91  845  711 31% 36 151099 2062 33%
c i 28.43 1347 117 1  91  883  743 31% 36 151099 2061 33%
c i 28.45 1347 116 1  91  892  750 31% 36 151099 2060 33%
c i 28.48 1347 113 1  91  927  772 31% 36 151099 2059 33%
c i 28.48 1347 112 1  91  934  777 31% 35 151099 2058 33%
c } 28.54 1347 107 1  91 1000  817 31% 34 151099 2058 33%
c [ 28.54 1347  0 1  91 1000  817  0% 0 151099 2058 33%
c O 28.60 1347 24 1  91 1002  819 32% 19 151099 2058 33%
c - 28.98 1401 20 2  91 1012  705 32% 17 151017 2058 33%
c i 29.01 1401 21 2  91 1027  717 32% 19 151017 2057 33%
c i 29.12 1401 22 2  91 1186  836 32% 20 151017 2056 33%
c i 29.28 1401 23 2  91 1499 1049 32% 20 151017 2055 33%
c i 29.39 1401 24 2  91 1682 1169 32% 21 151017 2054 33%
c 
c  seconds    reductions  redundant   irredundant
c          MB     restarts       trail       variables
c            level   conflicts       glue         remaining
c 
c i 29.39 1401 24 2  91 1685 1171 32% 21 151017 2053 33%
c - 29.66 1400 24 3  92 2076 1011 32% 21 151002 2053 33%
c i 29.81 1400 24 3  92 2137 1060 47% 21 151002 2052 33%
c ] 30.12 1400 27 3  92 3002 1690 46% 24 151002 2052 33%
c { 30.12 1400 107 3  92 3002 1690 92% 34 151002 2052 33%
c F 30.18 1400 107 3  92 3003 1691 92% 34 151002 2052 33%
c i 30.39 1400 86 3  92 3387 1977 79% 31 151002 2051 33%
c i 30.39 1400 86 3  92 3389 1978 79% 31 151002 2050 33%
c - 30.51 1347 82 4  92 3490 1493 76% 30 150993 2050 33%
c d 31.00 1347 50 4  92 5001 2683 60% 23 141594 2042 33%
c 3 31.02 1347 50 4  92 5001 3596 60% 23 141594 2042 33%
c 2 31.04 1347 50 4  92 5001 3687 60% 23 141583 2041 33%
c p 32.96 1347 50 4  92 5001 6063 60% 23 141583 1993 32%
c d 33.15 1347 50 4  92 5001 5939 60% 23 141454 1992 32%
c - 33.38 1347 48 5  92 5259 2099 59% 22 141454 1992 32%
c # 34.00 1347 44 5 108 6005 2647 56% 21 141454 1992 32%
c } 35.92 1347 43 5 232 7003 3473 54% 23 141454 1992 32%
c [ 35.93 1347 27 5 232 7003 3473 46% 24 141454 1992 32%
c - 36.15 1347 26 6 233 7330 2495 46% 23 141454 1992 32%
c - 37.37 1347 31 7 234 9750 2818 45% 26 141454 1992 32%
c 
c  seconds    reductions   redundant   irredundant
c          MB     restarts        trail       variables
c            level    conflicts       glue         remaining
c 
c I 37.54 1347 32 7 234 10009 2980 45% 27 141454 1992 32%
c - 39.43 1347 55 8 236 12511 3478 43% 44 141454 1992 32%
c 2 40.73 1347 61 8 237 15002 6483 43% 49 141453 1992 32%
c p 41.71 1347 61 8 237 15002 8611 43% 49 141453 1992 32%
c ] 41.76 1347 61 8 237 15004 8613 42% 49 141453 1992 32%
c { 41.76 1347 43 8 237 15004 8613 54% 23 141453 1992 32%
c B 41.82 1347 43 8 237 15012 8621 54% 23 141453 1992 32%
c - 42.10 1347 41 9 260 15618 4431 53% 22 141453 1992 32%
c s 42.88 1347 33 9 264 18948 6324 50% 20 139104 1992 32%
c v 44.88 1347 33 9 264 18948 6324 50% 20 139093 1992 32%
c t 45.00 1347 33 9 264 18948 6318 50% 20 139086 1992 32%
c e 45.27 1349 33 9 264 18948 6040 50% 20 136508 581  9%
c s 45.34 1349 33 9 264 18948 6022 50% 20 133932 581  9%
c - 45.88 1349 33 10 264 19069 4064 76% 20 133932 581  9%
c W 46.48 1349 30 10 270 21013 5345 78% 19 133932 581  9%
c - 48.52 1349 31 11 410 22787 4641 77% 20 133932 581  9%
c - 49.35 1349 28 12 414 26844 5073 77% 19 133932 581  9%
c F 49.61 1349 27 12 414 28015 5758 77% 18 133932 581  9%
c 3 50.83 1349 26 12 502 30006 7614 77% 18 133932 581  9%
c 2 50.85 1349 26 12 502 30006 7614 77% 18 133931 581  9%
c 
c  seconds    reductions    redundant   irredundant
c          MB      restarts        trail       variables
c            level     conflicts       glue        remaining
c 
c p 51.72 1349 26 12 502 30006 8726 77% 18 133931 581  9%
c } 52.33 1349 26 12 587 31005 9424 77% 18 133931 581  9%
c [ 52.33 1349 61 12 587 31005 9424 150% 49 133931 581  9%
c - 52.46 1349 60 13 587 31239 5831 148% 48 133931 581  9%
c - 54.79 1349 55 14 590 35973 6139 123% 44 133931 581  9%
c B 54.89 1349 55 14 590 36018 6176 123% 44 133931 581  9%
c - 56.45 1349 49 15 593 41043 6578 110% 40 133931 581  9%
c W 58.32 1349 46 15 594 45024 9252 104% 37 133931 581  9%
c - 58.66 1349 45 16 595 46452 7033 102% 36 133931 581  9%
c p 60.43 1349 42 16 595 50006 10689 99% 34 133931 581  9%
c s 60.77 1349 41 16 595 50346 10839 98% 34 130264 581  9%
c v 62.51 1349 41 16 595 50346 10839 98% 34 130254 581  9%
c w 62.65 1349 41 16 595 50346 10838 98% 34 130254 581  9%
c t 62.65 1349 41 16 595 50346 10837 98% 34 130254 581  9%
c s 63.01 1350 41 16 595 50346 10837 98% 34 126117 581  9%
c - 64.16 1350 41 17 595 52200 7407 97% 33 126117 581  9%
c O 64.85 1350 40 17 596 55025 9376 95% 33 126117 581  9%
c - 65.51 1350 39 18 598 58149 7797 93% 32 126117 581  9%
c ] 66.43 1350 38 18 602 63009 10772 91% 31 126117 581  9%
c { 66.43 1350 26 18 602 63009 10772 77% 18 126117 581  9%
c 
c  seconds    reductions    redundant   irredundant
c          MB      restarts        trail       variables
c            level     conflicts       glue        remaining
c 
c - 66.98 1350 26 19 658 64424 7928 77% 18 126117 581  9%
c B 67.33 1350 25 19 663 66029 8788 77% 18 126117 581  9%
c - 69.71 1350 24 20 833 71029 8124 77% 17 126117 581  9%
c } 70.02 1350 23 20 840 73375 9579 77% 17 126117 581  9%
c 1 70.02 1350 23 20 840 73375 9579 77% 17 126117 581  9%
c 
c --- [ writing output ] -----------------------------------------------------
c 
c writing simplified CNF to DIMACS file 'simp/45.cubes36.adj.simp1'
c * 70.02 1350 23 20 840 73375 9579 77% 17 126117 581  9%
c opening file to write 'simp/45.cubes36.adj.simp1'
c writing 'p cnf 6160 126117' header
c closing file 'simp/45.cubes36.adj.simp1'
c after writing 53061276 bytes 50.6 MB
c wrote 126117 clauses in 0.38 seconds process time
c 
c --- [ writing extension ] --------------------------------------------------
c 
c writing extension stack to 'simp/45.cubes36.adj.ext1'
c opening file to write 'simp/45.cubes36.adj.ext1'
c closing file 'simp/45.cubes36.adj.ext1'
c after writing 90088 bytes 0.1 MB
c wrote 4081 witnesses in 0.00 seconds process time
c 
c --- [ result ] -------------------------------------------------------------
c 
s SATISFIABLE
c 
c --- [ run-time profiling ] -------------------------------------------------
c 
c process time taken by individual solving procedures
c (percentage relative to process time for solving)
c 
c        42.95   80.34% search
c        25.05   46.85% unstable
c        16.55   30.96% parse
c        16.32   30.53% stable
c        10.51   19.65% simplify
c         4.65    8.70% probe
c         3.96    7.41% vivify
c         1.00    1.87% elim
c         0.84    1.56% walk
c         0.75    1.39% lucky
c         0.33    0.62% subsume
c         0.08    0.14% ternary
c   =================================
c        53.46   75.93% solve
c 
c last line shows process time for solving
c (percentage relative to total process time)
c 
c --- [ statistics ] ---------------------------------------------------------
c 
c chronological:             12456        16.98 %  of conflicts
c conflicts:                 73375      1372.52    per second
c decisions:                124263      2324.41    per second
c eliminated:                 1411        22.91 %  of all variables
c fixed:                      1015        16.48 %  of all variables
c learned:                   71952        98.06 %  per conflict
c learned_lits:           10151892       100.00 %  learned literals
c minimized:                     0         0.00 %  learned literals
c shrunken:                6521818        64.24 %  learned literals
c minishrunken:             559985         5.52 %  learned literals
c propagations:            4888914         0.09 M  per second
c reduced:                   39069        53.25 %  per conflict
c rephased:                     11      6670.45    interval
c restarts:                    840        87.35    interval
c stabilizing:                   3        57.25 %  of conflicts
c substituted:                   9         0.15 %  of all variables
c subsumed:                  35779         1.05 %  of all clauses
c strengthened:               7370         0.22 %  of all clauses
c ternary:                    2722         0.72 %  of resolved
c vivified:                     32         0.00 %  of all clauses
c walked:                        2     36687.50    interval
c weakened:                   3066         3.04    average size
c 
c seconds are measured in process time for solving
c 
c --- [ resources ] ----------------------------------------------------------
c 
c total process time since initialization:        70.40    seconds
c total real time since initialization:           72.33    seconds
c maximum resident set size of process:         1523.96    MB
c 
c --- [ shutting down ] ------------------------------------------------------
c 
c exit 10
WARNING! DIMACS header mismatch: wrong number of variables.
============================[ Problem Statistics ]=============================
|                                                                             |
|  Number of variables:          3759                                         |
|  Number of clauses:          126119                                         |
|  Parse time:                   0.78 s                                       |
|  Simplification time:          0.02 s                                       |
|                                                                             |
============================[ Search Statistics ]====================================================
| Conflicts |          ORIGINAL         |          LEARNT          | Num Sols |      SUBGRAPHS      |
|           |    Vars  Clauses Literals |    Limit  Clauses Lit/Cl |          | Canonical Noncanon. |
=====================================================================================================
|       128 |    3653   126147 11252894 |     2000      128     84 |        0 |        22        28 |
|       286 |    3653   126155 11252956 |     2000      286     82 |        0 |        29        36 |
|       531 |    3653   126175 11253169 |     2000      531     82 |        0 |        43        56 |
|       893 |    3653   126200 11253661 |     2000      893     85 |        0 |        56        81 |
|      1426 |    3653   126227 11254119 |     2000     1426     90 |        0 |        71       108 |
|      2225 |    3653   126267 11255077 |     3601     1226     60 |        0 |        98       148 |
|      3383 |    3653   126286 11255433 |     3601     2384     75 |        0 |       109       167 |
|      5219 |    3653   126414 11257278 |     5002     2421     54 |        0 |       132       295 |
|      7884 |    3653   126517 11259247 |     6301     2585     37 |        0 |       152       398 |
|     11888 |    3653   126677 11261827 |     7556     3444     34 |        0 |       196       558 |
|     18850 |    3653   127873 11279059 |     8777     6627     36 |        0 |       538      1754 |
|     28984 |    3653   129358 11300331 |    11208     7392     35 |        0 |       866      3239 |
|     42614 |    3653   130014 11311469 |    13611     9225     35 |        0 |      1074      3895 |
|     62273 |    3653   130212 11315021 |    16007    14680     38 |        0 |      1158      4093 |
|     91776 |    3653   130523 11321499 |    19615    18391     48 |        0 |      1250      4404 |
|    136962 |    3653   131920 11347527 |    24413    20775     39 |        0 |      1657      5801 |
|    204593 |    3653   133867 11386788 |    30404    21397     35 |        0 |      2373      7748 |
|    304157 |    3653   134905 11410032 |    37612    20769     24 |        0 |      2683      8786 |
|    452566 |    3653   135525 11425609 |    46010    24976     24 |        0 |      2778      9406 |
|    676948 |    3653   138224 11476103 |    55611    48559     41 |        0 |      3487     12105 |
|   1017716 |    3653   146467 11640010 |    68820    50536     37 |        0 |      6012     20348 |
|   1525683 |    3653   155646 11788918 |    84414    64497     37 |        0 |      8169     29527 |
|   2278645 |    3653   160426 11896973 |   103618    70263     33 |        0 |      9646     34307 |
|   3410262 |    3653   169769 12085651 |   126423   115085     43 |        0 |     13303     43650 |
|   5105772 |    3653   181868 12313629 |   155221   128193     42 |        0 |     17765     55749 |
|   7640168 |    3646   188639 12469944 |   190027   168595     39 |        0 |     21609     65029 |
=====================================================================================================
Number of solutions   : 0
Canonical subgraphs   : 29228          (6 /sec)
          order  3    : 1              (200000 /sec)
          order  4    : 1              (1000000 /sec)
          order  5    : 1              (200000 /sec)
          order  6    : 1              (50000 /sec)
          order  7    : 1              (7874 /sec)
          order  8    : 1              (949 /sec)
          order  9    : 2              (139 /sec)
          order 10    : 2              (64 /sec)
          order 11    : 4              (36 /sec)
          order 12    : 25             (22 /sec)
          order 13    : 250            (15 /sec)
          order 14    : 2177           (10 /sec)
          order 15    : 14256          (7 /sec)
          order 16    : 6348           (5 /sec)
          order 17    : 5645           (4 /sec)
          order 18    : 448            (3 /sec)
          order 19    : 33             (3 /sec)
          order 20    : 19             (3 /sec)
          order 21    : 13             (3 /sec)
          order 22    : 0              (-nan /sec)
Noncanonical subgraphs: 86852          (263 /sec)
          order  3    : 0              (-nan /sec)
          order  4    : 0              (-nan /sec)
          order  5    : 0              (-nan /sec)
          order  6    : 0              (-nan /sec)
          order  7    : 0              (-nan /sec)
          order  8    : 0              (-nan /sec)
          order  9    : 0              (-nan /sec)
          order 10    : 0              (-nan /sec)
          order 11    : 0              (-nan /sec)
          order 12    : 0              (-nan /sec)
          order 13    : 482            (30462 /sec)
          order 14    : 7829           (4284 /sec)
          order 15    : 23182          (2328 /sec)
          order 16    : 49832          (266 /sec)
          order 17    : 2313           (156 /sec)
          order 18    : 3199           (29 /sec)
          order 19    : 2              (10 /sec)
          order 20    : 0              (-nan /sec)
          order 21    : 0              (-nan /sec)
Canonicity checking   : 5243.72 s
Noncanonicity checking: 329.675 s
Total canonicity time : 5573.39 s
database reductions   : 185
restarts              : 16382
conflicts             : 10623225       (1149 /sec)
decisions             : 13728402       (0.00 % random) (1484 /sec)
propagations          : 451190538      (48783 /sec)
conflict literals     : 765933896      (57.09 % deleted)
actual reward         : 0.297960
Memory used           : 264.00 MB
CPU time              : 9248.93 s

UNSATISFIABLE
